proyfinal/src/viki/013/andrea/andrea-localstore/experimentInOfficeAgust.take6/worker_1/f8d43f3b-655a-413b-9929-ee1118605b85.als.cnf.out
Reading from standard input... Use '--help' for help.
============================[ Problem Statistics ]=============================
|                                                                             |
|  Number of variables:         87638                                         |
|  Number of clauses:          161767                                         |
|  Parse time:                   0.03 s                                       |
|                                                                             |
============================[ Search Statistics ]==============================
| Conflicts |          ORIGINAL         |          LEARNT          | Progress |
|           |    Vars  Clauses Literals |    Limit  Clauses Lit/Cl |          |
===============================================================================
|       100 |   63942   110771   276683 |    40616      100     12 | 27.038 % |
|       250 |   63942   110771   276683 |    44677      250     22 | 27.038 % |
|       475 |   63912   110766   276671 |    49145      473     24 | 27.073 % |
|       812 |   63911   110604   276307 |    54059      808     60 | 27.074 % |
|      1318 |   63911   110604   276307 |    59465     1314     58 | 27.074 % |
|      2077 |   63910   110601   276301 |    65412     2072     61 | 27.075 % |
|      3216 |   63884   110493   276054 |    71953     3210     73 | 27.105 % |
|      4924 |   63852   110369   275750 |    79149     4915     72 | 27.141 % |
|      7486 |   55775    85102   213785 |    87064     6442     66 | 36.358 % |
|     11330 |   55703    84782   213061 |    95770     8742     61 | 36.440 % |
|     17096 |   55526    84071   211343 |   105347    13882     65 | 36.642 % |
===============================================================================
restarts              : 68
conflicts             : 19799          (7387 /sec)
decisions             : 67557          (0.00 % random) (25205 /sec)
propagations          : 30076979       (11221434 /sec)
conflict literals     : 1310751        (47.52 % deleted)
Memory used           : 37.20 MB
CPU time              : 2.68032 s

INDETERMINATE
